c File: flat50_3_0.col
c
c SOURCE: Joseph Culberson (joe@cs.ualberta.ca)
c DESCRIPTION: Quasi-random coloring problem
c              generated with flatness = 0
c                             probability = 0.139
c                             known coloring = 3
c                             random seed = 1056
c              Creation Date:  Tue Jun  9 12:00:07 1998
c Maximum degree = 8 Minimum degree = 1
c p edge 50 115
c cnf created by edge2cnf
p cnf 150 545
-1 -2 0
-1 -3 0
-2 -3 0
1 2 3 0
-4 -5 0
-4 -6 0
-5 -6 0
4 5 6 0
-7 -8 0
-7 -9 0
-8 -9 0
7 8 9 0
-10 -11 0
-10 -12 0
-11 -12 0
10 11 12 0
-13 -14 0
-13 -15 0
-14 -15 0
13 14 15 0
-16 -17 0
-16 -18 0
-17 -18 0
16 17 18 0
-19 -20 0
-19 -21 0
-20 -21 0
19 20 21 0
-22 -23 0
-22 -24 0
-23 -24 0
22 23 24 0
-25 -26 0
-25 -27 0
-26 -27 0
25 26 27 0
-28 -29 0
-28 -30 0
-29 -30 0
28 29 30 0
-31 -32 0
-31 -33 0
-32 -33 0
31 32 33 0
-34 -35 0
-34 -36 0
-35 -36 0
34 35 36 0
-37 -38 0
-37 -39 0
-38 -39 0
37 38 39 0
-40 -41 0
-40 -42 0
-41 -42 0
40 41 42 0
-43 -44 0
-43 -45 0
-44 -45 0
43 44 45 0
-46 -47 0
-46 -48 0
-47 -48 0
46 47 48 0
-49 -50 0
-49 -51 0
-50 -51 0
49 50 51 0
-52 -53 0
-52 -54 0
-53 -54 0
52 53 54 0
-55 -56 0
-55 -57 0
-56 -57 0
55 56 57 0
-58 -59 0
-58 -60 0
-59 -60 0
58 59 60 0
-61 -62 0
-61 -63 0
-62 -63 0
61 62 63 0
-64 -65 0
-64 -66 0
-65 -66 0
64 65 66 0
-67 -68 0
-67 -69 0
-68 -69 0
67 68 69 0
-70 -71 0
-70 -72 0
-71 -72 0
70 71 72 0
-73 -74 0
-73 -75 0
-74 -75 0
73 74 75 0
-76 -77 0
-76 -78 0
-77 -78 0
76 77 78 0
-79 -80 0
-79 -81 0
-80 -81 0
79 80 81 0
-82 -83 0
-82 -84 0
-83 -84 0
82 83 84 0
-85 -86 0
-85 -87 0
-86 -87 0
85 86 87 0
-88 -89 0
-88 -90 0
-89 -90 0
88 89 90 0
-91 -92 0
-91 -93 0
-92 -93 0
91 92 93 0
-94 -95 0
-94 -96 0
-95 -96 0
94 95 96 0
-97 -98 0
-97 -99 0
-98 -99 0
97 98 99 0
-100 -101 0
-100 -102 0
-101 -102 0
100 101 102 0
-103 -104 0
-103 -105 0
-104 -105 0
103 104 105 0
-106 -107 0
-106 -108 0
-107 -108 0
106 107 108 0
-109 -110 0
-109 -111 0
-110 -111 0
109 110 111 0
-112 -113 0
-112 -114 0
-113 -114 0
112 113 114 0
-115 -116 0
-115 -117 0
-116 -117 0
115 116 117 0
-118 -119 0
-118 -120 0
-119 -120 0
118 119 120 0
-121 -122 0
-121 -123 0
-122 -123 0
121 122 123 0
-124 -125 0
-124 -126 0
-125 -126 0
124 125 126 0
-127 -128 0
-127 -129 0
-128 -129 0
127 128 129 0
-130 -131 0
-130 -132 0
-131 -132 0
130 131 132 0
-133 -134 0
-133 -135 0
-134 -135 0
133 134 135 0
-136 -137 0
-136 -138 0
-137 -138 0
136 137 138 0
-139 -140 0
-139 -141 0
-140 -141 0
139 140 141 0
-142 -143 0
-142 -144 0
-143 -144 0
142 143 144 0
-145 -146 0
-145 -147 0
-146 -147 0
145 146 147 0
-148 -149 0
-148 -150 0
-149 -150 0
148 149 150 0
-79 -1 0
-80 -2 0
-81 -3 0
-82 -1 0
-83 -2 0
-84 -3 0
-106 -1 0
-107 -2 0
-108 -3 0
-118 -1 0
-119 -2 0
-120 -3 0
-145 -1 0
-146 -2 0
-147 -3 0
-61 -4 0
-62 -5 0
-63 -6 0
-82 -4 0
-83 -5 0
-84 -6 0
-85 -4 0
-86 -5 0
-87 -6 0
-94 -4 0
-95 -5 0
-96 -6 0
-139 -4 0
-140 -5 0
-141 -6 0
-70 -7 0
-71 -8 0
-72 -9 0
-109 -7 0
-110 -8 0
-111 -9 0
-133 -7 0
-134 -8 0
-135 -9 0
-139 -7 0
-140 -8 0
-141 -9 0
-142 -7 0
-143 -8 0
-144 -9 0
-55 -10 0
-56 -11 0
-57 -12 0
-64 -10 0
-65 -11 0
-66 -12 0
-67 -10 0
-68 -11 0
-69 -12 0
-94 -10 0
-95 -11 0
-96 -12 0
-112 -10 0
-113 -11 0
-114 -12 0
-118 -10 0
-119 -11 0
-120 -12 0
-67 -13 0
-68 -14 0
-69 -15 0
-70 -13 0
-71 -14 0
-72 -15 0
-76 -13 0
-77 -14 0
-78 -15 0
-88 -13 0
-89 -14 0
-90 -15 0
-109 -13 0
-110 -14 0
-111 -15 0
-136 -13 0
-137 -14 0
-138 -15 0
-139 -13 0
-140 -14 0
-141 -15 0
-58 -16 0
-59 -17 0
-60 -18 0
-76 -16 0
-77 -17 0
-78 -18 0
-85 -16 0
-86 -17 0
-87 -18 0
-136 -16 0
-137 -17 0
-138 -18 0
-55 -19 0
-56 -20 0
-57 -21 0
-118 -19 0
-119 -20 0
-120 -21 0
-130 -19 0
-131 -20 0
-132 -21 0
-55 -22 0
-56 -23 0
-57 -24 0
-64 -22 0
-65 -23 0
-66 -24 0
-91 -22 0
-92 -23 0
-93 -24 0
-109 -22 0
-110 -23 0
-111 -24 0
-127 -22 0
-128 -23 0
-129 -24 0
-142 -22 0
-143 -23 0
-144 -24 0
-145 -22 0
-146 -23 0
-147 -24 0
-73 -25 0
-74 -26 0
-75 -27 0
-79 -25 0
-80 -26 0
-81 -27 0
-94 -25 0
-95 -26 0
-96 -27 0
-106 -25 0
-107 -26 0
-108 -27 0
-127 -25 0
-128 -26 0
-129 -27 0
-142 -25 0
-143 -26 0
-144 -27 0
-58 -28 0
-59 -29 0
-60 -30 0
-88 -28 0
-89 -29 0
-90 -30 0
-118 -28 0
-119 -29 0
-120 -30 0
-61 -31 0
-62 -32 0
-63 -33 0
-67 -31 0
-68 -32 0
-69 -33 0
-100 -31 0
-101 -32 0
-102 -33 0
-112 -31 0
-113 -32 0
-114 -33 0
-67 -34 0
-68 -35 0
-69 -36 0
-70 -34 0
-71 -35 0
-72 -36 0
-61 -37 0
-62 -38 0
-63 -39 0
-73 -37 0
-74 -38 0
-75 -39 0
-127 -37 0
-128 -38 0
-129 -39 0
-115 -40 0
-116 -41 0
-117 -42 0
-121 -40 0
-122 -41 0
-123 -42 0
-127 -40 0
-128 -41 0
-129 -42 0
-100 -43 0
-101 -44 0
-102 -45 0
-106 -43 0
-107 -44 0
-108 -45 0
-124 -43 0
-125 -44 0
-126 -45 0
-142 -43 0
-143 -44 0
-144 -45 0
-148 -43 0
-149 -44 0
-150 -45 0
-52 -46 0
-53 -47 0
-54 -48 0
-58 -46 0
-59 -47 0
-60 -48 0
-64 -46 0
-65 -47 0
-66 -48 0
-100 -46 0
-101 -47 0
-102 -48 0
-109 -46 0
-110 -47 0
-111 -48 0
-124 -46 0
-125 -47 0
-126 -48 0
-139 -46 0
-140 -47 0
-141 -48 0
-145 -46 0
-146 -47 0
-147 -48 0
-94 -49 0
-95 -50 0
-96 -51 0
-145 -49 0
-146 -50 0
-147 -51 0
-136 -52 0
-137 -53 0
-138 -54 0
-142 -55 0
-143 -56 0
-144 -57 0
-115 -58 0
-116 -59 0
-117 -60 0
-118 -58 0
-119 -59 0
-120 -60 0
-136 -58 0
-137 -59 0
-138 -60 0
-142 -58 0
-143 -59 0
-144 -60 0
-127 -61 0
-128 -62 0
-129 -63 0
-148 -64 0
-149 -65 0
-150 -66 0
-106 -67 0
-107 -68 0
-108 -69 0
-112 -70 0
-113 -71 0
-114 -72 0
-124 -70 0
-125 -71 0
-126 -72 0
-145 -70 0
-146 -71 0
-147 -72 0
-106 -73 0
-107 -74 0
-108 -75 0
-118 -73 0
-119 -74 0
-120 -75 0
-139 -73 0
-140 -74 0
-141 -75 0
-109 -79 0
-110 -80 0
-111 -81 0
-136 -79 0
-137 -80 0
-138 -81 0
-106 -82 0
-107 -83 0
-108 -84 0
-121 -82 0
-122 -83 0
-123 -84 0
-139 -82 0
-140 -83 0
-141 -84 0
-148 -82 0
-149 -83 0
-150 -84 0
-103 -85 0
-104 -86 0
-105 -87 0
-109 -85 0
-110 -86 0
-111 -87 0
-121 -85 0
-122 -86 0
-123 -87 0
-136 -85 0
-137 -86 0
-138 -87 0
-130 -88 0
-131 -89 0
-132 -90 0
-121 -91 0
-122 -92 0
-123 -93 0
-127 -91 0
-128 -92 0
-129 -93 0
-109 -94 0
-110 -95 0
-111 -96 0
-118 -94 0
-119 -95 0
-120 -96 0
-133 -94 0
-134 -95 0
-135 -96 0
-118 -97 0
-119 -98 0
-120 -99 0
-127 -97 0
-128 -98 0
-129 -99 0
-133 -97 0
-134 -98 0
-135 -99 0
-139 -97 0
-140 -98 0
-141 -99 0
-121 -100 0
-122 -101 0
-123 -102 0
-139 -100 0
-140 -101 0
-141 -102 0
